c Read 5584 clauses.  2094 variables
c Breaking ties randomly with seed 1
c Placed 5584 terms into 980 buckets.
c Bucket 49 Reduced to term with 7 nodes
c Bucket 98 Reduced to term with 7 nodes
c Bucket 147 Reduced to term with 7 nodes
c Bucket 196 Reduced to term with 7 nodes
c Bucket 245 Reduced to term with 7 nodes
c Bucket 294 Reduced to term with 7 nodes
c Bucket 343 Reduced to term with 9 nodes
c Bucket 392 Reduced to term with 9 nodes
c Bucket 441 Reduced to term with 7 nodes
c Bucket 490 Reduced to term with 9 nodes
c Bucket 539 Reduced to term with 9 nodes
c Bucket 588 Reduced to term with 9 nodes
c Bucket 637 Reduced to term with 7 nodes
c Bucket 686 Reduced to term with 31 nodes
c Bucket 735 Reduced to term with 19 nodes
c Bucket 784 Reduced to term with 27 nodes
c Bucket 833 Reduced to term with 33 nodes
c Bucket 882 Reduced to term with 25 nodes
c Bucket 931 Reduced to term with 7 nodes
c Bucket 980 Reduced to term with 89 nodes
c Bucket 1029 Reduced to term with 85 nodes
c Bucket 1078 Reduced to term with 9 nodes
c Bucket 1127 Reduced to term with 7 nodes
c Garbage collection #1: 2000003 nodes / 1937342 free / 41810 previously freed  / 0.0s / 0.0s total
c Bucket 1176 Reduced to term with 729 nodes
c Garbage collection #2: 2000003 nodes / 1872975 free / 31201 previously freed  / 0.0s / 0.0s total
c Bucket 1225 Reduced to term with 13 nodes
c Bucket 1274 Reduced to term with 763 nodes
c Garbage collection #3: 2000003 nodes / 1803715 free / 35582 previously freed  / 0.0s / 0.1s total
c Bucket 1372 Reduced to term with 533 nodes
c Bucket 1519 Reduced to term with 25 nodes
c Bucket 1568 Reduced to term with 205 nodes
c Bucket 1666 Reduced to term with 117 nodes
s UNSATISFIABLE

c Cache statistics
c ----------------
c Unique Access:  482416
c Unique Chain:   26304
c Unique Hit:     98433
c Unique Miss:    381469
c => Hit rate =   0.21
c Operator Hits:  644196
c Operator Miss:  685836
c => Hit rate =   0.48
c Swap count =    0

c BDD statistics
c ----------------
c Total BDD nodes produced: 381469
c Input variables: 2094
c Input clauses: 5584
c Total clauses: 2494086
c Unused+non-BDD clause IDs: 26549 (1.1%)
c Maximum live clauses: 1162152
c Deleted clauses: 2488502
c Final live clauses: 5584
c Total variables: 383561
c Elapsed seconds: 3.356
-rw-r--r--  1 bryant  staff  134997494 Mar 10 23:07 chew-700-123456.lrat
c parsed a formula with 2094 variables and 5584 clauses
c VERIFIED
c allocated 1024 7335544 106008
c Added clauses = 2494086.  Deleted clauses = 1331935.  Max live clauses = 1162152
c verification time = 1.54 secs
